
Gurobi 10.0.1 (win64) logging started Sat May 20 08:48:48 2023

Set parameter LogFile to value "logFiles/A-2L-C/A-2L-6U-23F-15V-365D-basic-heuristic.log"
Gurobi Optimizer version 10.0.1 build v10.0.1rc0 (win64)

CPU model: Intel(R) Core(TM) i7-10700 CPU @ 2.90GHz, instruction set [SSE2|AVX|AVX2]
Thread count: 8 physical cores, 16 logical processors, using up to 16 threads

Optimize a model with 158996 rows, 1534432 columns and 11143900 nonzeros
Model fingerprint: 0x206d6ebb
Variable types: 3323 continuous, 1531109 integer (1531109 binary)
Coefficient statistics:
  Matrix range     [1e+00, 2e+05]
  Objective range  [4e+01, 3e+07]
  Bounds range     [1e+00, 1e+00]
  RHS range        [1e+00, 8e+06]
Presolve removed 106689 rows and 70796 columns (presolve time = 5s) ...
Presolve removed 108502 rows and 70798 columns (presolve time = 10s) ...
Presolve removed 108502 rows and 70798 columns (presolve time = 15s) ...
Presolve removed 108502 rows and 70798 columns (presolve time = 20s) ...
Presolve removed 108374 rows and 70670 columns
Presolve time: 20.26s
Presolved: 50622 rows, 1463762 columns, 8225874 nonzeros
Variable types: 3378 continuous, 1460384 integer (1460323 binary)
Deterministic concurrent LP optimizer: primal simplex, dual simplex, and barrier
Showing barrier log only...

Root barrier log...

Ordering time: 3.56s

Barrier statistics:
 AA' NZ     : 3.849e+06
 Factor NZ  : 4.792e+07 (roughly 1.0 GB of memory)
 Factor Ops : 2.194e+11 (roughly 1 second per iteration)
 Threads    : 5

                  Objective                Residual
Iter       Primal          Dual         Primal    Dual     Compl     Time
   0  -2.94555711e+17  6.97508500e+12  3.00e+10 5.98e+04  5.00e+11    38s
   1  -6.18449420e+16  1.30473929e+13  6.35e+09 4.42e+05  1.07e+11    41s
   2  -8.86585726e+15  1.39327046e+13  9.16e+08 1.19e+03  1.55e+10    44s
   3  -1.28539584e+14  9.11755144e+12  1.33e+07 1.14e+01  2.28e+08    47s
   4  -1.73643100e+13  2.32127572e+12  1.79e+06 1.63e-09  3.23e+07    51s
   5  -1.90101936e+12  1.88998159e+12  1.96e+05 1.40e-09  4.10e+06    56s
   6  -2.41510818e+11  1.07803985e+12  2.51e+04 1.16e-09  8.02e+05    62s
   7  -4.27691644e+10  5.00462168e+11  4.70e+03 1.34e-09  2.42e+05    70s
   8  -1.06489580e+10  8.27589715e+10  1.39e+03 3.32e-09  4.44e+04    77s
   9  -1.31013189e+09  3.03772331e+10  4.41e+02 3.52e-09  1.44e+04    83s
  10   8.63280149e+08  1.73721925e+10  2.32e+02 3.86e-09  7.46e+03    88s
  11   2.42727018e+09  1.34093727e+10  7.69e+01 6.34e-09  4.35e+03    93s
  12   2.56312782e+09  8.81405349e+09  6.39e+01 1.59e-08  2.63e+03    98s
  13   2.72518607e+09  7.43996122e+09  4.89e+01 1.48e-08  1.99e+03   102s
  14   2.76336278e+09  6.60786795e+09  4.54e+01 1.61e-08  1.66e+03   106s
  15   2.83438228e+09  5.49438800e+09  3.89e+01 1.82e-08  1.20e+03   110s
  16   2.91719244e+09  5.04801506e+09  3.20e+01 3.70e-08  9.57e+02   115s
  17   2.93478190e+09  4.90850282e+09  3.04e+01 2.34e-08  8.90e+02   120s
  18   3.02691863e+09  4.58818992e+09  2.28e+01 2.83e-08  6.89e+02   125s
  19   3.11753729e+09  4.32727447e+09  1.55e+01 3.46e-08  5.14e+02   131s
  20   3.14981499e+09  4.01986418e+09  1.30e+01 3.45e-08  3.73e+02   136s
  21   3.22735818e+09  3.83050894e+09  7.01e+00 2.99e-08  2.42e+02   142s
  22   3.24098141e+09  3.76378237e+09  5.58e+00 3.18e-08  2.05e+02   148s
  23   3.25009122e+09  3.71255057e+09  4.97e+00 3.27e-08  1.79e+02   152s
  24   3.26135606e+09  3.65999098e+09  4.23e+00 3.81e-08  1.53e+02   158s
  25   3.27189221e+09  3.63255369e+09  3.57e+00 3.59e-08  1.36e+02   163s
  26   3.29910092e+09  3.54885569e+09  1.84e+00 3.39e-08  9.03e+01   168s
  27   3.31584395e+09  3.50044304e+09  1.01e+00 3.51e-08  6.52e+01   174s
  28   3.32357698e+09  3.42359409e+09  7.17e-01 2.83e-08  3.48e+01   179s
  29   3.33394310e+09  3.40140268e+09  3.44e-01 3.14e-08  2.32e+01   185s
  30   3.33957158e+09  3.38706425e+09  2.19e-01 3.37e-08  1.63e+01   190s
  31   3.34288617e+09  3.37975386e+09  1.64e-01 3.21e-08  1.26e+01   194s
  32   3.34321177e+09  3.37560390e+09  1.58e-01 3.59e-08  1.11e+01   199s
  33   3.34586960e+09  3.37091320e+09  1.18e-01 3.33e-08  8.57e+00   203s
  34   3.34838554e+09  3.36639476e+09  8.35e-02 3.84e-08  6.16e+00   208s
  35   3.34990815e+09  3.36310853e+09  6.66e-02 3.26e-08  4.51e+00   214s
  36   3.35225226e+09  3.36188701e+09  4.23e-02 3.63e-08  3.29e+00   220s
  37   3.35354890e+09  3.36063967e+09  3.04e-02 3.45e-08  2.42e+00   227s
  38   3.35481766e+09  3.35928715e+09  1.96e-02 3.24e-08  1.53e+00   233s
  39   3.35515605e+09  3.35916753e+09  1.69e-02 3.97e-08  1.37e+00   239s
  40   3.35585495e+09  3.35858640e+09  1.12e-02 4.19e-08  9.35e-01   244s
  41   3.35630044e+09  3.35814513e+09  7.71e-03 3.60e-08  6.31e-01   250s
  42   3.35669523e+09  3.35784594e+09  4.67e-03 3.24e-08  3.94e-01   255s
  43   3.35699217e+09  3.35766395e+09  2.44e-03 3.21e-08  2.30e-01   260s
  44   3.35714687e+09  3.35755600e+09  1.29e-03 3.01e-08  1.40e-01   265s
  45   3.35720179e+09  3.35745184e+09  8.94e-04 3.09e-08  8.57e-02   270s
  46   3.35725558e+09  3.35742276e+09  5.12e-04 3.26e-08  5.73e-02   274s
  47   3.35727709e+09  3.35739803e+09  3.66e-04 3.06e-08  4.14e-02   278s
  48   3.35729469e+09  3.35737901e+09  2.45e-04 3.36e-08  2.89e-02   282s
  49   3.35730973e+09  3.35736241e+09  1.46e-04 3.91e-08  1.81e-02   287s
  50   3.35731501e+09  3.35735258e+09  1.11e-04 3.91e-08  1.29e-02   292s
  51   3.35732511e+09  3.35733788e+09  4.46e-05 4.47e-08  4.39e-03   298s
  52   3.35732833e+09  3.35733545e+09  2.49e-05 5.69e-08  2.44e-03   303s
  53   3.35733061e+09  3.35733377e+09  1.04e-05 4.89e-08  1.09e-03   311s
  54   3.35733165e+09  3.35733265e+09  2.86e-06 5.17e-08  3.44e-04   319s
  55   3.35733197e+09  3.35733240e+09  8.60e-07 5.41e-08  1.48e-04   327s
  56   3.35733208e+09  3.35733212e+09  2.00e-07 4.82e-08  1.44e-05   333s
  57   3.35733211e+09  3.35733211e+09  5.02e-09 4.96e-08  6.31e-07   339s
  58   3.35733211e+09  3.35733211e+09  2.55e-08 5.51e-08  7.37e-08   344s
  59   3.35733211e+09  3.35733211e+09  2.26e-07 3.76e-08  6.86e-10   350s

Barrier solved model in 59 iterations and 350.17 seconds (212.15 work units)
Optimal objective 3.35733211e+09


Root crossover log...

   39676 DPushes remaining with DInf 0.0000000e+00               351s
     135 DPushes remaining with DInf 0.0000000e+00               356s
      75 DPushes remaining with DInf 0.0000000e+00               361s
      15 DPushes remaining with DInf 0.0000000e+00               366s
       0 DPushes remaining with DInf 0.0000000e+00               367s

    1450 PPushes remaining with PInf 3.5002030e-04               367s
       0 PPushes remaining with PInf 0.0000000e+00               367s

  Push phase complete: Pinf 0.0000000e+00, Dinf 3.7319034e-01    367s


Root simplex log...

Iteration    Objective       Primal Inf.    Dual Inf.      Time
   41120    3.3573321e+09   0.000000e+00   3.731902e-01    367s
   41129    3.3573321e+09   0.000000e+00   0.000000e+00    368s
Concurrent spin time: 46.52s (can be avoided by choosing Method=3)

Solved with barrier
   41129    3.3573321e+09   0.000000e+00   0.000000e+00    416s

Root relaxation: objective 3.357332e+09, 41129 iterations, 390.72 seconds (163.06 work units)
Total elapsed time = 420.43s

    Nodes    |    Current Node    |     Objective Bounds      |     Work
 Expl Unexpl |  Obj  Depth IntInf | Incumbent    BestBd   Gap | It/Node Time

     0     0 3.3573e+09    0 2504          - 3.3573e+09      -     -  423s
     0     0 3.3544e+09    0 2395          - 3.3544e+09      -     - 1843s
     0     0 3.3543e+09    0 2275          - 3.3543e+09      -     - 5349s
     0     0 3.3543e+09    0 2251          - 3.3543e+09      -     - 6240s
     0     0 3.3543e+09    0 2266          - 3.3543e+09      -     - 6422s
     0     0 3.3543e+09    0 2265          - 3.3543e+09      -     - 6483s
     0     0 3.3542e+09    0 2305          - 3.3542e+09      -     - 7278s

Cutting planes:
  Cover: 16
  Implied bound: 52
  Clique: 4
  MIR: 43
  StrongCG: 1
  Flow cover: 99
  GUB cover: 1
  RLT: 37
  Relax-and-lift: 6

Explored 1 nodes (192283 simplex iterations) in 10800.18 seconds (9111.49 work units)
Thread count was 16 (of 16 available processors)

Solution count 0

Time limit reached
Best objective -, best bound 3.354204199033e+09, gap -
IIS computation: initial model status unknown, solving to determine model status
Presolve removed 106689 rows and 70798 columns (presolve time = 5s) ...
Presolve removed 108502 rows and 70798 columns (presolve time = 10s) ...
Presolve removed 108502 rows and 70798 columns (presolve time = 15s) ...
Presolve removed 108502 rows and 70798 columns (presolve time = 20s) ...
Presolve removed 108374 rows and 70670 columns
Presolve time: 21.28s
Presolved: 50622 rows, 1463762 columns, 8225874 nonzeros
Variable types: 3378 continuous, 1460384 integer (1460323 binary)
Deterministic concurrent LP optimizer: primal simplex, dual simplex, and barrier
Showing barrier log only...

Root barrier log...

Ordering time: 3.41s

Barrier statistics:
 AA' NZ     : 3.849e+06
 Factor NZ  : 4.792e+07 (roughly 1.0 GB of memory)
 Factor Ops : 2.194e+11 (roughly 1 second per iteration)
 Threads    : 5

                  Objective                Residual
Iter       Primal          Dual         Primal    Dual     Compl     Time
   0  -0.00000000e+00  5.51709447e+05  3.00e+10 0.00e+00  3.81e+04    42s
   1  -0.00000000e+00  9.94750012e+05  6.28e+09 3.21e-02  8.02e+03    45s
   2  -0.00000000e+00  1.04601061e+06  3.70e+08 2.86e-04  4.75e+02    47s
   3  -0.00000000e+00  6.05624601e+05  1.04e+07 3.15e-06  1.36e+01    50s
   4  -0.00000000e+00  1.31096514e+05  4.05e+06 7.39e-07  3.58e+00    53s
   5  -0.00000000e+00  5.04116819e+04  5.98e+05 3.88e-07  3.75e-01    57s
   6  -0.00000000e+00  3.51915423e+04  2.38e+05 2.44e-07  1.33e-01    60s
   7  -0.00000000e+00  7.57461815e+03  4.43e+04 1.36e-07  1.05e-02    64s
   8  -0.00000000e+00  1.46959918e+03  8.45e+03 3.71e-07  1.13e-03    68s
   9  -0.00000000e+00  4.87424076e+02  3.29e+03 2.93e-07  3.39e-04    71s
  10  -0.00000000e+00  1.08239784e+02  6.92e+02 2.21e-07  6.38e-05    75s
  11  -0.00000000e+00  5.70858934e+01  4.04e+02 1.36e-07  3.45e-05    78s
  12  -0.00000000e+00  4.12373954e+01  2.59e+02 1.05e-07  2.36e-05    80s
  13  -0.00000000e+00  2.74849182e+01  1.75e+02 8.04e-08  1.57e-05    82s
  14  -0.00000000e+00  2.19512065e+01  1.58e+02 7.03e-08  1.31e-05    85s
  15  -0.00000000e+00  1.24700622e+01  9.84e+01 5.94e-08  7.64e-06    87s
  16  -0.00000000e+00  6.20983210e+00  7.68e+01 5.32e-08  4.64e-06    90s
  17  -0.00000000e+00  3.01559617e+00  3.55e+01 3.73e-08  2.19e-06    94s
  18  -0.00000000e+00  1.88934238e+00  1.52e+01 3.21e-08  1.16e-06    97s
  19  -0.00000000e+00  1.32573881e+00  9.92e+00 5.27e-08  7.85e-07   100s
  20  -0.00000000e+00  1.03606197e+00  7.90e+00 6.05e-08  6.12e-07   103s
  21  -0.00000000e+00  8.75858232e-01  3.45e+00 6.16e-08  4.31e-07   106s
  22  -0.00000000e+00  5.63678420e-01  2.20e+00 5.23e-08  2.76e-07   108s
  23  -0.00000000e+00  1.98456768e-01  9.78e-01 2.77e-08  9.29e-08   110s
  24  -0.00000000e+00  4.27586233e-03  1.28e+00 7.85e-10  2.16e-09   113s
  25  -0.00000000e+00  1.38457443e-05  1.86e-02 3.16e-12  9.20e-12   118s
  26  -0.00000000e+00  9.80647857e-09  2.84e-05 6.85e-15  1.57e-14   122s

Barrier solved model in 26 iterations and 121.70 seconds (141.29 work units)
Optimal objective -0.00000000e+00


Root crossover log...

   41168 DPushes remaining with DInf 0.0000000e+00               122s
       0 DPushes remaining with DInf 0.0000000e+00               124s

 1305661 PPushes remaining with PInf 2.4293359e-05               124s
 1266879 PPushes remaining with PInf 0.0000000e+00               125s
 1209100 PPushes remaining with PInf 0.0000000e+00               130s
 1168393 PPushes remaining with PInf 0.0000000e+00               135s
 1139502 PPushes remaining with PInf 0.0000000e+00               140s
 1113225 PPushes remaining with PInf 0.0000000e+00               145s
 1092934 PPushes remaining with PInf 0.0000000e+00               150s
 1024844 PPushes remaining with PInf 0.0000000e+00               155s
  823719 PPushes remaining with PInf 0.0000000e+00               160s
  635182 PPushes remaining with PInf 0.0000000e+00               165s
  415965 PPushes remaining with PInf 0.0000000e+00               170s
  269635 PPushes remaining with PInf 0.0000000e+00               175s
  214497 PPushes remaining with PInf 0.0000000e+00               180s
  180601 PPushes remaining with PInf 0.0000000e+00               185s
  152257 PPushes remaining with PInf 0.0000000e+00               190s
  130550 PPushes remaining with PInf 0.0000000e+00               195s
  106788 PPushes remaining with PInf 0.0000000e+00               200s
   85442 PPushes remaining with PInf 0.0000000e+00               205s
   64859 PPushes remaining with PInf 0.0000000e+00               210s
   47715 PPushes remaining with PInf 0.0000000e+00               215s
   28318 PPushes remaining with PInf 0.0000000e+00               220s
    7654 PPushes remaining with PInf 0.0000000e+00               225s
       0 PPushes remaining with PInf 0.0000000e+00               227s

  Push phase complete: Pinf 0.0000000e+00, Dinf 0.0000000e+00    227s


Root simplex log...

Iteration    Objective       Primal Inf.    Dual Inf.      Time
 1345316   -0.0000000e+00   0.000000e+00   0.000000e+00    227s
Concurrent spin time: 0.03s

Solved with barrier
 1345316   -0.0000000e+00   0.000000e+00   0.000000e+00    228s

Root relaxation: objective -0.000000e+00, 1345316 iterations, 198.58 seconds (146.01 work units)

    Nodes    |    Current Node    |     Objective Bounds      |     Work
 Expl Unexpl |  Obj  Depth IntInf | Incumbent    BestBd   Gap | It/Node Time

     0     0   -0.00000    0 3728          -   -0.00000      -     -  804s
     0     0   -0.00000    0 1199          -   -0.00000      -     - 3272s
     0     0   -0.00000    0 1059          -   -0.00000      -     - 4435s
     0     0          -    0               -   -0.00000      -     - 4635s

Cutting planes:
  Cover: 15
  Implied bound: 136
  Clique: 7
  MIR: 154
  Flow cover: 133
  GUB cover: 5
  Network: 9
  RLT: 66
  Relax-and-lift: 23

Explored 1 nodes (1721586 simplex iterations) in 4635.94 seconds (6670.36 work units)
Thread count was 16 (of 16 available processors)

Solution count 0

Solve interrupted
Best objective -, best bound -0.000000000000e+00, gap -
IIS runtime: 4636.18 seconds (6670.36 work units)
